
   1  11
   2  11
   3   9
   4   6
   5   0
   6   0
   7   0
   8   0
   9  11
  10  10
  11   7
  12   7
  13   7
  14   2
  15   7
  16  10
  17   5
  18  12
  19   9
  20   8
  21   8
  22  12
  23   4
  24   9
  25  12
  26  12
  27  10
  28  11
  29  10
  30   5
  31   2
  32   2
  33   2
  34   2
  35  10
  36  10
  37   2
  38   1
  39   4
  40   4
  41  12
  42   1
  43   4
  44  12
  45   4
  46   1
  47   1
  48   4
  49  10
  50  10
  51   7
  52  10
  53  10
  54  10
  55   7
  56   2
  57   7
  58  12
  59   8
  60  12
  61   4
  62   4
  63   9
  64   8
  65  12
  66   8
  67   8
  68   3
  69   3
  70   3
  71   3
  72   0
  73  12
  74  12
  75  12
  76  12
  77   2
  78   5
  79   5
  80   5
  81   5
  82   5
  83   5
  84   5
  85   9
  86   1
  87   1
  88   1
  89  12
  90   1
  91   1
  92   1
  93   4
  94   4
  95   2
  96   2
  97  12
  98   7
  99   7
 100   2
 101   7
 102   7
 103   8
 104   8
 105   1
 106   1
 107  11
 108  11
 109   6
 110   6
 111   6
 112   7
 113  11
 114  11
 115  11
 116  11
 117  11
 118  11
 119  11
 120   7
 121   9
 122   8
 123   9
 124   9
 125   8
 126   9
 127   8
 128   9
 129   9
 130   5
 131  10
 132   4
 133   3
 134   1
 135   6
 136   2
 137   9
 138   0
 139   5